NAME:20_10
TYPE: TSP
DIMENSION: 20
EDGE_WEIGHT_TYPE: EXPLICIT
EDGE_WEIGHT_FORMAT: UPPER_ROW
EDGE_WEIGHT_SECTION
312 312 312 312 312 312 312 312 312 0 104 125 104 118 105 121 104 133 128 312 312 312 312 312 312 312 312 142 0 139 142 156 139 139 122 151 156 312 312 312 312 312 312 312 123 121 0 123 137 104 140 123 140 145 312 312 312 312 312 312 144 106 125 0 118 105 137 124 137 130 312 312 312 312 312 138 104 139 122 0 123 123 118 123 116 312 312 312 312 143 125 144 123 137 0 156 143 156 149 312 312 312 125 121 140 123 121 104 0 125 116 121 312 312 124 124 145 124 138 121 121 0 133 138 312 125 109 140 123 109 104 104 113 0 109 126 104 139 118 104 111 111 108 111 0 312 312 312 312 312 312 312 312 312 312 312 312 312 312 312 312 312 312 312 312 312 312 312 312 312 312 312 312 312 312 312 312 312 312 312 312 312 312 312 312 312 312 312 312 312 